(set-info :Origin "This instance was generated by: BanditFuzz-- an RL fuzzer for SMT solvers" )
(set-info :Author "Joe Scott, Fed Mora, Vijay Ganesh" )
(set-info :Contact "Joe Scott, joseph.scott@uwaterloo.ca")
(set-logic QF_BV)
(declare-const bool_0 Bool)
(declare-const bool_1 Bool)
(declare-const bool_2 Bool)
(declare-const bool_3 Bool)
(declare-const bool_4 Bool)
(declare-const bv_0 (_ BitVec 32))
(declare-const bv_1 (_ BitVec 32))
(declare-const bv_2 (_ BitVec 32))
(declare-const bv_3 (_ BitVec 32))
(declare-const bv_4 (_ BitVec 32))
(assert (or (bvuge (bvashr bv_3 #x426818dc ) (bvor bv_4 bv_4)) (bvsge (bvsdiv bv_1 bv_2) (bvshl bv_2 #xc5543c28 ))))
(assert (bvugt (bvudiv (bvlshr bv_1 #xceaeed37 ) (bvudiv #x1f25ccfa  #xa402b60c )) (bvudiv (bvadd bv_4 #x7b0745ee ) (bvsrem bv_4 #xc7ca23f4 ))))
(assert (bvugt (bvadd (bvnor bv_0 #xc42e92e8 ) (bvsub bv_1 #x04968489 )) (bvmul (bvlshr bv_4 bv_0) (bvurem bv_2 #x5641dc83 ))))
(assert (bvsgt (bvurem (bvxor #x4a177c84  bv_4) (bvnand #x7d05d9a4  #xc26f48ad )) (bvand (bvsmod bv_2 #xbc4c559b ) (bvlshr #x9c2541d1  #x9b3603bb ))))
(assert (bvslt (bvmul (bvsrem #x826ecba1  bv_4) (bvmul #x2c6687f9  bv_3)) (bvlshr (bvurem #x3ff9d08d  bv_2) (bvlshr #x820fcedc  bv_4))))
(check-sat)
(exit)
